0 0 0 0
0 1 0 0
0 2 0 0
0 3 0 52
0 4 0 9
0 5 0 8
0 6 0 10
0 7 0 36
0 8 0 12
0 9 0 23
0 10 0 34
0 11 0 20
0 12 0 33
0 13 0 53
0 14 0 27
0 15 0 53
0 16 0 13
0 17 0 20
0 18 0 51
0 19 0 13
0 20 0 96
0 21 0 27
0 22 0 34
0 23 0 54
0 24 0 47
0 25 0 61
0 26 0 66
0 27 0 66
0 28 0 61
0 29 0 39
0 30 0 8
0 31 0 75
0 32 0 84
0 33 0 13
0 34 0 125
0 35 0 39
0 36 0 35
0 37 0 13
0 38 0 25
0 39 0 53
0 40 0 75
0 41 0 33
0 42 0 36
0 43 0 176
0 44 0 48
0 45 0 105
0 46 0 74
0 47 0 145
0 48 0 84
0 49 0 101
0 50 0 39
0 51 0 111
0 52 0 39
0 53 0 71
0 54 0 74
0 55 0 85
0 56 0 86
0 57 0 106
0 58 0 111
0 59 0 118
0 60 0 80
0 61 0 86
0 62 0 89
0 63 0 56
0 64 0 56
0 65 0 92
0 66 0 71
0 67 0 48
0 68 0 113
0 69 0 113
0 70 0 99
0 71 0 54
0 72 0 129
0 73 0 66
0 74 0 101
0 75 0 116
0 76 0 139
0 77 0 105
0 78 0 134
0 79 0 151
0 80 0 139
0 81 0 151
0 82 0 126
0 83 0 127
0 84 0 156
0 85 0 134
0 86 0 48
0 87 0 115
0 88 0 146
0 89 0 158
0 90 0 168
0 91 0 144
0 92 0 135
0 93 0 115
0 94 0 158
0 95 0 89
0 96 0 170
0 97 0 161
0 98 0 139
0 99 0 127
0 100 0 161
0 101 0 151
0 102 0 126
0 103 0 142
0 104 0 151
0 105 0 177
0 106 0 156
0 107 0 168
0 108 0 187
0 109 0 176
0 110 0 134
0 111 0 160
0 112 0 177
0 113 0 175
0 114 0 177
0 115 0 175
0 116 0 184
0 117 0 184
0 118 0 196
0 119 0 144
0 120 0 187
0 121 0 198
